
Gurobi 9.5.2 (linux64, gurobi_cl) logging started Thu Nov  3 23:28:16 2022

Set parameter TokenServer to value "license1.computecanada.ca"
Set parameter LogFile to value "gurobi.log"
Using license file /cvmfs/restricted.computecanada.ca/config/licenses/gurobi/clusters/cedar.lic

Gurobi Optimizer version 9.5.2 build v9.5.2rc0 (linux64)
Copyright (c) 2022, Gurobi Optimization, LLC

Read LP format model from file ../../EXP/SPP_DCJ/MACSE_1_I/macse_1_I.ilp
Reading time = 0.00 seconds
: 0 rows, 0 columns, 0 nonzeros
Thread count: 32 physical cores, 64 logical processors, using up to 32 threads
Optimize a model with 0 rows, 0 columns and 0 nonzeros
Model fingerprint: 0xf9715da1
Coefficient statistics:
  Matrix range     [0e+00, 0e+00]
  Objective range  [0e+00, 0e+00]
  Bounds range     [0e+00, 0e+00]
  RHS range        [0e+00, 0e+00]
Presolve time: 0.00s
Presolve: All rows and columns removed
Iteration    Objective       Primal Inf.    Dual Inf.      Time
       0    0.0000000e+00   0.000000e+00   0.000000e+00      0s

Solved in 0 iterations and 0.00 seconds (0.00 work units)
Optimal objective  0.000000000e+00

Wrote result file '../../EXP/SPP_DCJ/MACSE_1_I/macse_1_I.sol'

